6 100 364
0 86 22
1 29 17 1 47
2 4 50 23 80
3 25 13 23 4
4 67 37 5 33
5 13 7 7 76
6 62 15 18 42
7 84 38 12 32
8 34 3 20 14
9 19 45 19 67
10 42 76 19 9
11 40 86 16 43
12 25 94 2 24
13 63 57 26 26
14 75 24 13 71
15 61 85 19 4
16 87 38 17 30
17 54 39 14 47
18 66 34 8 13
19 46 39 10 52
20 47 17 5 74
21 21 54 19 25
22 19 83 12 4
23 1 82 9 30
24 94 28 18 63
25 82 72 4 47
26 41 59 20 26
27 100 77 8 40
28 1 57 3 15
29 96 7 18 24
30 57 82 26 7
31 47 38 21 10
32 68 89 21 79
33 16 36 8 34
34 51 38 19 48
35 83 74 66 69
36 84 2 21 30
